 Code  1133
 Dimension, Fixed Cost
   100        3000
 Facility, Client, Transportation Cost
     1        8           3
     1       20           3
     1       23           3
     1       40           1
     1       64           4
     1       67           1
     1       81           2
     1       84           1
     1       87           0
     1       88           4
     2       28           0
     2       29           0
     2       34           2
     2       38           1
     2       42           1
     2       44           1
     2       47           2
     2       56           1
     2       59           4
     2       79           4
     3        9           0
     3       13           1
     3       30           0
     3       31           0
     3       35           2
     3       38           3
     3       39           3
     3       44           1
     3       59           0
     3       78           4
     4        4           4
     4        6           2
     4        7           0
     4       42           1
     4       43           1
     4       54           4
     4       57           2
     4       60           2
     4       68           4
     4       86           1
     5        2           0
     5        7           0
     5       10           2
     5       14           2
     5       20           1
     5       26           0
     5       34           1
     5       44           1
     5       45           1
     5       73           3
     6        2           0
     6        3           0
     6       19           0
     6       21           2
     6       39           3
     6       42           4
     6       49           1
     6       64           0
     6       65           2
     6       79           4
     7       16           4
     7       28           4
     7       36           1
     7       48           4
     7       59           2
     7       81           2
     7       82           1
     7       83           2
     7       86           4
     7       90           1
     8       10           3
     8       41           4
     8       54           2
     8       65           4
     8       72           4
     8       89           3
     8       90           4
     8       93           1
     8       96           2
     8      100           2
     9        1           2
     9       14           0
     9       17           2
     9       29           1
     9       32           4
     9       44           1
     9       50           3
     9       57           3
     9       66           3
     9       72           1
    10        4           1
    10       24           3
    10       26           2
    10       32           2
    10       58           0
    10       63           2
    10       64           4
    10       74           1
    10       79           1
    10       88           4
    11        1           2
    11        3           1
    11        8           1
    11       10           1
    11       34           1
    11       45           4
    11       53           4
    11       65           0
    11       78           4
    11       80           2
    12        1           4
    12       11           0
    12       19           0
    12       23           0
    12       43           0
    12       46           2
    12       63           1
    12       65           2
    12       69           2
    12       72           2
    13       17           4
    13       20           1
    13       22           0
    13       27           4
    13       30           1
    13       31           3
    13       46           1
    13       71           0
    13       76           1
    13       77           4
    14        3           2
    14       40           2
    14       76           1
    14       78           0
    14       87           1
    14       95           4
    14       96           2
    14       98           0
    14       99           2
    14      100           3
    15       15           4
    15       40           4
    15       42           2
    15       49           1
    15       50           4
    15       58           1
    15       69           1
    15       70           3
    15       78           3
    15       94           2
    16        2           2
    16       21           1
    16       31           0
    16       42           1
    16       45           1
    16       49           1
    16       53           4
    16       54           3
    16       56           3
    16       67           2
    17        3           0
    17        7           1
    17       12           4
    17       14           3
    17       19           1
    17       28           2
    17       41           4
    17       49           2
    17       52           4
    17       54           2
    18       33           2
    18       36           1
    18       75           2
    18       82           2
    18       85           2
    18       86           2
    18       88           1
    18       93           1
    18       95           4
    18       97           0
    19       15           0
    19       16           0
    19       18           3
    19       20           2
    19       29           3
    19       39           2
    19       40           4
    19       51           2
    19       62           1
    19       66           3
    20       13           0
    20       19           3
    20       21           2
    20       27           0
    20       28           1
    20       30           2
    20       37           0
    20       42           4
    20       54           2
    20       60           3
    21        6           4
    21        8           0
    21       14           3
    21       22           2
    21       32           0
    21       38           2
    21       80           4
    21       90           0
    21       91           0
    21       98           1
    22       20           4
    22       28           0
    22       31           4
    22       55           4
    22       63           0
    22       75           0
    22       78           2
    22       87           1
    22       92           3
    22       95           2
    23        2           4
    23       18           0
    23       21           0
    23       33           4
    23       37           1
    23       74           2
    23       75           4
    23       76           0
    23       79           0
    23       92           0
    24        3           3
    24       12           3
    24       21           0
    24       35           4
    24       72           0
    24       92           2
    24       94           0
    24       97           1
    24       99           0
    24      100           4
    25        6           3
    25        9           4
    25       30           2
    25       48           3
    25       53           1
    25       55           2
    25       62           1
    25       64           0
    25       83           3
    25       88           1
    26        7           0
    26       10           4
    26       12           1
    26       23           4
    26       43           3
    26       61           0
    26       70           3
    26       71           4
    26       73           4
    26       80           2
    27        1           1
    27        2           2
    27       22           3
    27       35           0
    27       66           1
    27       67           1
    27       91           2
    27       95           3
    27       97           3
    27       98           4
    28       23           3
    28       43           0
    28       45           2
    28       53           0
    28       60           0
    28       61           0
    28       70           0
    28       91           0
    28       93           1
    28       95           3
    29       38           1
    29       48           3
    29       60           2
    29       62           1
    29       67           3
    29       76           0
    29       79           1
    29       82           0
    29       89           2
    29       97           2
    30        6           3
    30        9           0
    30       13           1
    30       20           3
    30       29           3
    30       49           0
    30       59           2
    30       80           3
    30       86           3
    30       93           1
    31       14           1
    31       17           4
    31       19           2
    31       23           3
    31       25           0
    31       60           3
    31       62           2
    31       67           1
    31       76           0
    31       83           4
    32       15           4
    32       17           4
    32       37           4
    32       39           1
    32       65           2
    32       77           0
    32       85           1
    32       89           0
    32       90           3
    32       92           3
    33        1           4
    33        5           3
    33       24           1
    33       25           0
    33       27           1
    33       30           0
    33       36           4
    33       44           3
    33       65           2
    33       68           0
    34        1           0
    34        6           1
    34        8           3
    34       26           3
    34       52           3
    34       54           4
    34       56           3
    34       62           1
    34       63           1
    34       67           3
    35        3           0
    35        5           2
    35       13           2
    35       16           2
    35       20           4
    35       23           1
    35       29           4
    35       42           1
    35       43           2
    35       55           1
    36       25           2
    36       50           2
    36       55           4
    36       75           4
    36       90           4
    36       92           0
    36       97           4
    36       98           1
    36       99           4
    36      100           1
    37       14           1
    37       15           3
    37       16           1
    37       48           3
    37       51           0
    37       58           4
    37       63           4
    37       64           1
    37       65           1
    37       75           4
    38        7           0
    38       10           2
    38       23           2
    38       28           3
    38       31           4
    38       42           3
    38       47           2
    38       55           4
    38       57           3
    38       66           1
    39       10           4
    39       14           1
    39       17           1
    39       18           4
    39       41           4
    39       50           3
    39       56           3
    39       57           4
    39       60           0
    39       82           3
    40        5           2
    40       26           0
    40       38           1
    40       39           4
    40       44           3
    40       45           1
    40       46           1
    40       52           2
    40       72           4
    40       83           4
    41       19           3
    41       24           3
    41       38           2
    41       58           4
    41       59           2
    41       62           2
    41       68           0
    41       73           0
    41       87           2
    41       89           1
    42       13           3
    42       28           1
    42       45           1
    42       48           4
    42       71           2
    42       81           2
    42       84           4
    42       90           4
    42       91           0
    42       92           3
    43       22           4
    43       40           2
    43       51           2
    43       58           4
    43       64           3
    43       68           4
    43       89           0
    43       91           2
    43       96           4
    43       97           1
    44       23           4
    44       26           0
    44       39           1
    44       43           0
    44       52           1
    44       69           3
    44       82           2
    44       96           4
    44       98           4
    44       99           2
    45        1           3
    45       22           3
    45       24           0
    45       33           2
    45       44           1
    45       54           4
    45       59           1
    45       70           4
    45       71           0
    45       78           0
    46        1           4
    46       21           1
    46       33           0
    46       48           0
    46       66           4
    46       68           4
    46       86           1
    46       88           3
    46       89           1
    46       95           4
    47        4           3
    47       16           1
    47       26           2
    47       30           3
    47       31           0
    47       34           4
    47       43           2
    47       51           4
    47       73           4
    47       74           1
    48        8           2
    48        9           1
    48       13           2
    48       14           3
    48       48           2
    48       54           0
    48       56           1
    48       66           4
    48       86           0
    48       87           3
    49       11           2
    49       24           1
    49       28           1
    49       38           0
    49       46           0
    49       57           0
    49       59           4
    49       76           2
    49       84           2
    49       85           0
    50        7           4
    50       16           4
    50       20           1
    50       32           0
    50       35           2
    50       57           0
    50       78           0
    50       79           3
    50       88           1
    50       93           4
    51        6           1
    51       15           1
    51       19           0
    51       29           3
    51       47           2
    51       55           2
    51       60           4
    51       61           3
    51       63           3
    51       68           1
    52       18           2
    52       29           3
    52       34           3
    52       41           4
    52       43           1
    52       56           2
    52       71           1
    52       81           4
    52       85           1
    52       91           4
    53       13           1
    53       14           4
    53       21           4
    53       41           4
    53       46           3
    53       50           0
    53       54           0
    53       70           2
    53       71           4
    53       73           3
    54       11           3
    54       35           0
    54       41           3
    54       79           4
    54       82           1
    54       92           2
    54       94           1
    54       95           3
    54       97           2
    54       98           4
    55        7           4
    55       19           4
    55       31           1
    55       60           4
    55       65           3
    55       67           2
    55       76           2
    55       80           3
    55       84           4
    55       85           0
    56       16           3
    56       40           4
    56       46           0
    56       53           3
    56       61           4
    56       69           2
    56       82           4
    56       93           2
    56       94           1
    56       96           2
    57        7           0
    57       18           3
    57       22           4
    57       47           3
    57       49           3
    57       51           3
    57       53           4
    57       61           4
    57       64           4
    57       73           3
    58       12           0
    58       15           2
    58       17           4
    58       33           2
    58       40           1
    58       46           2
    58       66           4
    58       73           2
    58       83           0
    58       88           1
    59        9           0
    59       16           2
    59       24           4
    59       49           3
    59       59           3
    59       66           2
    59       72           0
    59       77           4
    59       80           4
    59       81           0
    60        4           4
    60        8           0
    60       11           4
    60       16           4
    60       25           4
    60       26           2
    60       51           3
    60       58           3
    60       63           1
    60       81           3
    61        4           1
    61       14           3
    61       23           2
    61       27           1
    61       51           2
    61       70           1
    61       75           4
    61       76           1
    61       79           2
    61       87           2
    62       18           3
    62       24           0
    62       27           2
    62       30           4
    62       31           4
    62       34           0
    62       37           4
    62       38           1
    62       43           4
    62       45           4
    63       10           4
    63       21           3
    63       23           1
    63       24           3
    63       25           3
    63       28           0
    63       49           4
    63       56           3
    63       60           4
    63       68           0
    64       17           2
    64       18           3
    64       21           1
    64       35           2
    64       36           0
    64       51           0
    64       63           3
    64       64           2
    64       73           1
    64       85           4
    65        5           3
    65       33           2
    65       37           2
    65       50           3
    65       67           2
    65       69           2
    65       72           0
    65       77           4
    65       83           0
    65       84           3
    66       18           3
    66       33           1
    66       39           4
    66       47           4
    66       50           3
    66       52           1
    66       58           1
    66       74           2
    66       81           1
    66       84           4
    67        2           1
    67        6           2
    67       32           0
    67       35           3
    67       53           1
    67       72           1
    67       74           4
    67       77           1
    67       96           3
    67      100           3
    68        4           0
    68        5           2
    68       20           1
    68       34           4
    68       36           0
    68       40           3
    68       61           2
    68       62           2
    68       63           4
    68       69           4
    69        2           2
    69       35           3
    69       58           2
    69       61           4
    69       84           0
    69       86           0
    69       92           1
    69       98           1
    69       99           4
    69      100           3
    70        9           0
    70       13           1
    70       18           3
    70       20           4
    70       33           0
    70       36           2
    70       38           1
    70       41           4
    70       83           4
    70       86           1
    71       10           2
    71       15           3
    71       16           2
    71       25           0
    71       29           3
    71       30           4
    71       42           2
    71       47           0
    71       56           3
    71       71           3
    72       29           3
    72       45           3
    72       49           0
    72       61           1
    72       68           4
    72       89           2
    72       94           1
    72       95           0
    72       96           0
    72       97           1
    73        1           2
    73        9           3
    73       12           0
    73       48           0
    73       65           3
    73       77           0
    73       90           3
    73       93           2
    73       94           0
    73       97           3
    74        6           0
    74        7           3
    74        8           1
    74       39           1
    74       46           3
    74       51           4
    74       70           4
    74       71           3
    74       72           3
    74       75           0
    75        6           3
    75       10           3
    75       85           3
    75       88           3
    75       89           3
    75       91           1
    75       93           1
    75       96           1
    75       99           2
    75      100           2
    76        9           1
    76       13           0
    76       17           4
    76       34           3
    76       36           4
    76       53           1
    76       54           0
    76       77           0
    76       78           4
    76       80           2
    77        5           2
    77       26           2
    77       57           0
    77       59           0
    77       70           2
    77       86           3
    77       87           4
    77       89           4
    77       91           3
    77       99           1
    78       15           1
    78       40           1
    78       48           1
    78       52           1
    78       58           0
    78       73           0
    78       82           1
    78       83           0
    78       84           0
    78       87           4
    79       37           4
    79       55           3
    79       64           1
    79       75           4
    79       84           1
    79       91           4
    79       93           1
    79       96           1
    79       97           0
    79       98           0
    80        5           2
    80       28           3
    80       31           1
    80       55           0
    80       79           3
    80       81           3
    80       94           1
    80       95           1
    80       99           4
    80      100           0
    81        4           0
    81       11           1
    81       31           0
    81       32           2
    81       37           2
    81       40           1
    81       55           2
    81       77           0
    81       89           2
    81       92           3
    82       17           4
    82       25           4
    82       34           2
    82       37           0
    82       46           0
    82       58           2
    82       74           4
    82       80           1
    82       82           4
    82       90           3
    83        4           3
    83        5           1
    83       11           4
    83       12           2
    83       19           0
    83       27           1
    83       32           2
    83       44           4
    83       61           1
    83       63           2
    84        2           3
    84        3           3
    84        4           2
    84        7           1
    84        9           3
    84       11           4
    84       33           0
    84       35           0
    84       39           4
    84       50           4
    85       22           4
    85       27           0
    85       32           3
    85       43           1
    85       44           1
    85       47           2
    85       56           1
    85       70           1
    85       71           4
    85       74           4
    86        5           2
    86       35           2
    86       39           3
    86       52           1
    86       66           3
    86       74           4
    86       78           3
    86       81           0
    86       90           0
    86       91           2
    87        3           2
    87       26           3
    87       30           1
    87       37           0
    87       41           2
    87       46           3
    87       47           1
    87       77           3
    87       85           2
    87       88           0
    88       15           3
    88       22           2
    88       24           2
    88       27           1
    88       33           0
    88       47           2
    88       50           4
    88       57           2
    88       68           0
    88       72           3
    89       12           0
    89       27           0
    89       34           3
    89       50           4
    89       59           0
    89       64           1
    89       69           2
    89       73           3
    89       84           2
    89       94           0
    90        4           4
    90        5           4
    90       27           2
    90       36           4
    90       45           3
    90       52           4
    90       53           3
    90       57           3
    90       62           2
    90       82           3
    91       11           3
    91       25           0
    91       36           1
    91       41           2
    91       69           4
    91       77           0
    91       83           0
    91       90           3
    91       94           4
    91       99           0
    92        6           4
    92       11           4
    92       30           3
    92       37           0
    92       53           0
    92       69           0
    92       75           3
    92       78           0
    92       80           4
    92       83           3
    93       10           3
    93       12           3
    93       13           1
    93       22           4
    93       52           4
    93       56           1
    93       68           1
    93       74           3
    93       80           0
    93       98           1
    94        3           3
    94        9           2
    94       15           2
    94       18           2
    94       70           0
    94       79           0
    94       85           0
    94       93           4
    94       99           4
    94      100           1
    95        2           3
    95        8           1
    95       12           2
    95       41           3
    95       55           1
    95       65           3
    95       76           0
    95       87           3
    95       95           2
    95       98           0
    96        3           0
    96       21           1
    96       24           2
    96       29           2
    96       32           3
    96       42           1
    96       45           3
    96       61           1
    96       62           0
    96       67           2
    97       22           4
    97       25           1
    97       26           3
    97       38           2
    97       52           0
    97       86           4
    97       88           3
    97       94           0
    97       96           1
    97      100           1
    98        8           2
    98       32           2
    98       36           1
    98       44           1
    98       48           4
    98       49           1
    98       62           0
    98       66           3
    98       85           3
    98       92           4
    99        8           4
    99       11           2
    99       47           1
    99       51           0
    99       60           0
    99       67           4
    99       71           0
    99       75           3
    99       76           2
    99       87           4
   100        1           2
   100        2           1
   100       12           0
   100       17           1
   100       19           0
   100       25           1
   100       57           3
   100       69           2
   100       74           3
   100       81           1
